MLT03
Position Depot: Center
Horizon for Depot: Large
Position of customers: Mixt
Distribution of the demand: Large
Width of time windows: Tight
Distribution of the service: Small

VEHICLE 
NUMBER 	 CAPACITY 
 14 	 	 330 
 
CUSTOMER
CUST NO. 	 XCOORD.  	 YCOORD. 	 DEMAND 	 READY TIME 	 DUE DATE 	 SERVICE TIME 
 0 	 	 500 	 	 500 	 	 0 	 	 0 	 	 4485 	 	 0 
  1 	 	 598 	 	 677 	 	 57 	 	 285 	 	 420 	 	 91 
  2 	 	 928 	 	 837 	 	 65 	 	 3153 	 	 3215 	 	 78 
  3 	 	 261 	 	 795 	 	 32 	 	 1198 	 	 1341 	 	 72 
  4 	 	 435 	 	 671 	 	 20 	 	 3955 	 	 4090 	 	 79 
  5 	 	 368 	 	 582 	 	 47 	 	 2467 	 	 2616 	 	 91 
  6 	 	 565 	 	 642 	 	 95 	 	 1415 	 	 1488 	 	 81 
  7 	 	 771 	 	 480 	 	 15 	 	 1793 	 	 1881 	 	 69 
  8 	 	 207 	 	 917 	 	 12 	 	 3150 	 	 3293 	 	 90 
  9 	 	 978 	 	 793 	 	 59 	 	 455 	 	 616 	 	 84 
  10 	 	 778 	 	 492 	 	 6 	 	 3163 	 	 3230 	 	 65 
  11 	 	 314 	 	 746 	 	 93 	 	 3846 	 	 4035 	 	 54 
  12 	 	 524 	 	 621 	 	 96 	 	 2516 	 	 2615 	 	 97 
  13 	 	 453 	 	 678 	 	 31 	 	 4156 	 	 4229 	 	 63 
  14 	 	 237 	 	 932 	 	 29 	 	 3415 	 	 3609 	 	 91 
  15 	 	 339 	 	 801 	 	 78 	 	 3148 	 	 3206 	 	 75 
  16 	 	 451 	 	 576 	 	 36 	 	 1509 	 	 1703 	 	 58 
  17 	 	 572 	 	 546 	 	 67 	 	 3122 	 	 3227 	 	 59 
  18 	 	 990 	 	 810 	 	 83 	 	 2480 	 	 2557 	 	 71 
  19 	 	 879 	 	 838 	 	 49 	 	 3832 	 	 3888 	 	 50 
  20 	 	 192 	 	 830 	 	 57 	 	 3130 	 	 3329 	 	 53 
  21 	 	 939 	 	 755 	 	 93 	 	 2249 	 	 2419 	 	 80 
  22 	 	 893 	 	 826 	 	 87 	 	 2729 	 	 2821 	 	 52 
  23 	 	 230 	 	 714 	 	 46 	 	 2237 	 	 2405 	 	 56 
  24 	 	 185 	 	 922 	 	 52 	 	 4203 	 	 4378 	 	 61 
  25 	 	 244 	 	 906 	 	 61 	 	 2358 	 	 2524 	 	 85 
  26 	 	 441 	 	 720 	 	 92 	 	 231 	 	 409 	 	 99 
  27 	 	 367 	 	 602 	 	 22 	 	 533 	 	 656 	 	 87 
  28 	 	 176 	 	 936 	 	 25 	 	 3319 	 	 3376 	 	 59 
  29 	 	 909 	 	 834 	 	 55 	 	 1729 	 	 1798 	 	 85 
  30 	 	 808 	 	 941 	 	 22 	 	 3969 	 	 4054 	 	 66 
  31 	 	 328 	 	 504 	 	 92 	 	 4142 	 	 4239 	 	 54 
  32 	 	 216 	 	 779 	 	 18 	 	 695 	 	 886 	 	 80 
  33 	 	 120 	 	 682 	 	 16 	 	 853 	 	 948 	 	 97 
  34 	 	 231 	 	 848 	 	 93 	 	 1444 	 	 1532 	 	 52 
  35 	 	 354 	 	 914 	 	 7 	 	 285 	 	 482 	 	 73 
  36 	 	 436 	 	 719 	 	 99 	 	 2050 	 	 2148 	 	 90 
  37 	 	 175 	 	 827 	 	 76 	 	 1869 	 	 2056 	 	 55 
  38 	 	 335 	 	 660 	 	 96 	 	 560 	 	 716 	 	 76 
  39 	 	 898 	 	 487 	 	 72 	 	 4249 	 	 4405 	 	 68 
  40 	 	 238 	 	 841 	 	 16 	 	 2298 	 	 2492 	 	 93 
  41 	 	 933 	 	 872 	 	 86 	 	 3663 	 	 3767 	 	 63 
  42 	 	 306 	 	 806 	 	 93 	 	 786 	 	 922 	 	 58 
  43 	 	 294 	 	 797 	 	 18 	 	 3051 	 	 3126 	 	 73 
  44 	 	 986 	 	 864 	 	 23 	 	 3594 	 	 3706 	 	 75 
  45 	 	 661 	 	 651 	 	 32 	 	 1614 	 	 1737 	 	 56 
  46 	 	 486 	 	 811 	 	 91 	 	 1560 	 	 1627 	 	 59 
  47 	 	 179 	 	 929 	 	 7 	 	 2315 	 	 2429 	 	 56 
  48 	 	 517 	 	 720 	 	 42 	 	 3979 	 	 4038 	 	 91 
  49 	 	 396 	 	 636 	 	 58 	 	 2548 	 	 2608 	 	 57 
  50 	 	 894 	 	 786 	 	 72 	 	 2901 	 	 2974 	 	 71 
  51 	 	 270 	 	 420 	 	 2 	 	 3137 	 	 3306 	 	 54 
  52 	 	 406 	 	 800 	 	 50 	 	 2522 	 	 2629 	 	 87 
  53 	 	 378 	 	 783 	 	 20 	 	 1650 	 	 1744 	 	 92 
  54 	 	 461 	 	 667 	 	 47 	 	 1740 	 	 1873 	 	 64 
  55 	 	 708 	 	 666 	 	 80 	 	 2934 	 	 3035 	 	 90 
  56 	 	 723 	 	 816 	 	 77 	 	 3312 	 	 3449 	 	 85 
  57 	 	 767 	 	 200 	 	 12 	 	 3672 	 	 3859 	 	 92 
  58 	 	 362 	 	 176 	 	 93 	 	 1970 	 	 2146 	 	 90 
  59 	 	 175 	 	 174 	 	 53 	 	 1596 	 	 1701 	 	 56 
  60 	 	 931 	 	 689 	 	 19 	 	 1482 	 	 1678 	 	 91 
  61 	 	 360 	 	 52 	 	 74 	 	 4284 	 	 4471 	 	 68 
  62 	 	 943 	 	 120 	 	 69 	 	 1182 	 	 1287 	 	 96 
  63 	 	 841 	 	 485 	 	 11 	 	 2686 	 	 2837 	 	 90 
  64 	 	 993 	 	 807 	 	 91 	 	 2195 	 	 2262 	 	 89 
  65 	 	 250 	 	 965 	 	 2 	 	 566 	 	 624 	 	 56 
  66 	 	 686 	 	 637 	 	 55 	 	 3273 	 	 3416 	 	 67 
  67 	 	 221 	 	 385 	 	 7 	 	 3977 	 	 4108 	 	 81 
  68 	 	 888 	 	 238 	 	 60 	 	 2134 	 	 2298 	 	 73 
  69 	 	 627 	 	 72 	 	 69 	 	 3923 	 	 3975 	 	 98 
  70 	 	 81 	 	 574 	 	 43 	 	 1554 	 	 1723 	 	 77 
  71 	 	 701 	 	 73 	 	 12 	 	 2424 	 	 2487 	 	 86 
  72 	 	 773 	 	 201 	 	 51 	 	 3125 	 	 3194 	 	 54 
  73 	 	 483 	 	 310 	 	 50 	 	 4424 	 	 4485 	 	 59 
  74 	 	 941 	 	 839 	 	 6 	 	 4236 	 	 4298 	 	 65 
  75 	 	 300 	 	 140 	 	 21 	 	 1620 	 	 1684 	 	 57 
  76 	 	 605 	 	 379 	 	 19 	 	 1980 	 	 2125 	 	 72 
  77 	 	 983 	 	 440 	 	 63 	 	 3316 	 	 3488 	 	 87 
  78 	 	 234 	 	 679 	 	 39 	 	 1125 	 	 1228 	 	 77 
  79 	 	 13 	 	 811 	 	 64 	 	 1897 	 	 2072 	 	 74 
  80 	 	 829 	 	 221 	 	 76 	 	 2493 	 	 2565 	 	 97 
  81 	 	 717 	 	 271 	 	 86 	 	 3468 	 	 3592 	 	 95 
  82 	 	 422 	 	 349 	 	 7 	 	 2869 	 	 3047 	 	 55 
  83 	 	 754 	 	 55 	 	 11 	 	 4320 	 	 4447 	 	 98 
  84 	 	 610 	 	 118 	 	 86 	 	 2719 	 	 2807 	 	 81 
  85 	 	 927 	 	 146 	 	 70 	 	 1601 	 	 1685 	 	 76 
  86 	 	 221 	 	 48 	 	 62 	 	 1661 	 	 1836 	 	 70 
  87 	 	 279 	 	 328 	 	 29 	 	 4237 	 	 4391 	 	 58 
  88 	 	 846 	 	 261 	 	 15 	 	 975 	 	 1075 	 	 66 
  89 	 	 4 	 	 276 	 	 21 	 	 2241 	 	 2425 	 	 81 
  90 	 	 804 	 	 629 	 	 36 	 	 1221 	 	 1319 	 	 51 
  91 	 	 362 	 	 176 	 	 77 	 	 3178 	 	 3355 	 	 72 
  92 	 	 342 	 	 666 	 	 29 	 	 496 	 	 570 	 	 74 
  93 	 	 15 	 	 543 	 	 4 	 	 1355 	 	 1523 	 	 99 
  94 	 	 826 	 	 255 	 	 13 	 	 3818 	 	 3893 	 	 58 
  95 	 	 981 	 	 673 	 	 9 	 	 3225 	 	 3415 	 	 52 
  96 	 	 90 	 	 656 	 	 32 	 	 2286 	 	 2364 	 	 67 
  97 	 	 351 	 	 98 	 	 27 	 	 1329 	 	 1508 	 	 68 
  98 	 	 64 	 	 873 	 	 8 	 	 3430 	 	 3504 	 	 84 
  99 	 	 664 	 	 3 	 	 59 	 	 3973 	 	 4112 	 	 90 
  100 	 	 483 	 	 230 	 	 4 	 	 3394 	 	 3575 	 	 90 
 